sat
(:max-memory          18.08
 :memory              17.93
 :nlsat-conflicts     1
 :nlsat-decisions     1
 :nlsat-learned-added 1
 :nlsat-propagations  6
 :nlsat-stages        5
 :num-allocs          6251
 :rlimit-count        1942
 :time                0.00
 :total-time          0.01)
